(set-logic QF_LRA)
(declare-const state Real)
(declare-const derivative Real)
(declare-const next_state Real)
(assert (= state 1))
(assert (= derivative (- 1)))
(assert (= next_state (+ state (* (/ 1 2) derivative))))
(assert (= next_state (/ 3 4)))
(check-sat)
